NAME : XML100_1136_11
DIMENSION : 101
NB_CLUSTERS : 28
CLUSTERING_ALG : KMeans
CLUSTERING_PARAMS : k(30)
CLUSTERS
1 0
2 23 42 51 72 98
3 27 32 91
4 25 78 86
5 26 35
6 43 60 92 99
7 12 44 52 84 90
8 31 39 45 58 65 67
9 4 24 82 87
10 10 16 18 38 53
11 6 14 75 95
12 40 49 63 93
13 3 7 13 19 29
14 9 70 85
15 1 37 47
16 17 56 74 100
17 15 21 50 69 88
18 33 57 83
19 20 22 59 68 71
20 41 64
21 36 48 79 97
22 54 73
23 55 62 66 76 77 89
24 2 34 46 96
25 8 30
26 28 81 94
27 5 61
28 11 80
EOF